
Log started (V12.4.0.0) Tue Oct  8 10:43:56 2019

Warning, line 6: Name 'x' does not exist.
Tried aggregator 1 time.
No LP presolve or aggregator reductions.
Presolve time =    0.00 sec.

Iteration log . . .
Iteration:     1   Dual infeasibility =             0.000000
Iteration:     2   Dual objective     =           202.500000

Dual simplex - Optimal:  Objective =  2.0250000000e+02
Solution time =    0.00 sec.  Iterations = 2 (1)
Deterministic time = 0.00 ticks  (2.57 ticks/sec)


Variable Name           Solution Value
x1                           40.000000
x2                           17.500000
x3                           42.500000

Problem 'simplex.lp' read.
Read time =    0.00 sec.
Tried aggregator 1 time.
LP Presolve eliminated 0 rows and 1 columns.
Reduced LP has 2 rows, 3 columns, and 5 nonzeros.
Presolve time =    0.00 sec.

Iteration log . . .
Iteration:     1   Dual objective     =            12.000000

Dual simplex - Optimal:  Objective =  1.2000000000e+01
Solution time =    0.00 sec.  Iterations = 1 (0)
Deterministic time = 0.01 ticks  (5.09 ticks/sec)


Variable Name           Solution Value
x1                            6.000000
All other variables in the range 1-4 are 0.

Variable Name           Solution Value
x1                            6.000000
All other variables in the range 1-4 are 0.

Problem 'simplex.lp' read.
Read time =    0.00 sec.
Tried aggregator 1 time.
LP Presolve eliminated 0 rows and 1 columns.
Reduced LP has 2 rows, 3 columns, and 5 nonzeros.
Presolve time =    0.00 sec.

Iteration log . . .
Iteration:     1   Dual objective     =            12.000000

Dual simplex - Optimal:  Objective =  1.2000000000e+01
Solution time =    0.00 sec.  Iterations = 1 (0)
Deterministic time = 0.01 ticks  (5.09 ticks/sec)


Log started (V12.4.0.0) Tue Oct  8 11:29:50 2019


Problem 'simplex.lp' read.
Read time =    0.00 sec.
Tried aggregator 1 time.
LP Presolve eliminated 0 rows and 1 columns.
Reduced LP has 2 rows, 3 columns, and 5 nonzeros.
Presolve time =    0.00 sec.

Iteration log . . .
Iteration:     1   Dual objective     =            12.000000

Dual simplex - Optimal:  Objective =  1.2000000000e+01
Solution time =    0.00 sec.  Iterations = 1 (0)
Deterministic time = 0.01 ticks  (3.53 ticks/sec)


Variable Name           Solution Value
x1                            6.000000
All other variables in the range 1-4 are 0.
